21
 1 294 14
 2 340 17
 3 19 1
 4 234 13
 5 204 12
 6 32 2
 7 45 3
 8 112 8
 9 13 1
 10 120 10
 11 220 20
 12 10 1
 13 81 9
 14 104 13
 15 140 20
 16 66 11
 17 75 15
 18 24 6
 19 24 8
 20 36 18
 21 7 7
336